3 24 1 10
10 17 9 10 18 6 11 6 11 13 13 9 2 17 17 9 3 17 11 11 19 18 11 16 
5.48 4.42 11.63 2.44 14.42 13.42 9.86 11.83 0.89 1.65 14.06 6.83 0.29 10.84 10.85 7.02 14.4 5.05 2.52 13.78 8.45 11.69 11.28 2.43 
8 8 8 8 8 8 8 8 8 8 8 8 8 8 8 8 8 8 8 8 8 8 8 8 
2.81 2.92 3.92 11.35 1.07 10.72 2.54 7.01 1.89 7.95 4.65 15.03 12.01 15.67 11.1 10.55 12.2 6.47 10.55 11.74 12.71 7.83 2.38 12.03 
1 1 1 1 1 1 1 1 1 1 1 1 1 1 1 1 1 1 1 1 1 1 1 1 
1 1 1 1 1 1 1 1 1 1 1 1 1 1 1 1 1 1 1 1 1 1 1 1 
1 1 1 1 1 1 1 1 1 1 1 1 1 1 1 1 1 1 1 1 1 1 1 1 
0.01 0.01 0.01 0.01 0.01 0.01 0.01 0.01 0.01 0.01 0.01 0.01 0.01 0.01 0.01 0.01 0.01 0.01 0.01 0.01 0.01 0.01 0.01 0.01 
0.02 0.02 0.02 0.02 0.02 0.02 0.02 0.02 0.02 0.02 0.02 0.02 0.02 0.02 0.02 0.02 0.02 0.02 0.02 0.02 0.02 0.02 0.02 0.02 
1 1 1 1 1 1 1 1 1 1 1 1 1 1 1 1 1 1 1 1 1 1 1 1 
